NAME : rnd37_20.tsp
TYPE : TSP
DIMENSION : 20
EDGE_WEIGHT_TYPE : EUC_2D
NODE_COORD_SECTION
1 440 214
2 825 893
3 272 507
4 981 61
5 475 444
6 676 676
7 490 543
8 861 935
9 34 653
10 683 170
11 807 974
12 836 108
13 960 396
14 946 310
15 940 948
16 524 42
17 966 825
18 603 750
19 328 595
20 717 116
